Traveling Salesman Problem/TSP_generados/Aleatorio1620391584_15.tsp
NAME: Aleatorio1620391584_15.tsp
COMMENT: Randomly generated scenario
TYPE: TSP
DIMENSION: 15
EDGE_WEIGHT_TYPE: ATT
NODE_COORD_SECTION
1 9.15 9.55
2 44.33 27.94
3 43.39 31.4
4 27.11 48.56
5 6.92 16.07
6 20.52 4.89
7 38.57 49.57
8 36.44 10.66
9 21.97 23.78
10 48.36 43.63
11 38.95 45.21
12 19.49 27.78
13 5.21 11.64
14 13.6 10.87
15 47.46 7.23
