Traveling Salesman Problem/TSP_generados/Aleatorio1620391584_15.opt.tour
NAME: Aleatorio1620391584_15.opt.tour
COMMENT: Optimal solution for Aleatorio1620391584_15 (158.3749450874649)
TYPE: TOUR
DIMENSION: 15
TOUR_SECTION
1 14 6 8 15 2 3 10 11 7 4 12 9 5 13
-1
EOF
